/*********************************************
 * OPL 12.6.0.0 Data
 * Author: Adrian Rodriguez Bazaga, Pau Rodriguez Esmerats
 * Creation Date: 06/12/2017 at 23:03:01
 *********************************************/

nNurses=205;
maxConsec=2;
maxPresence=7;
maxHours=5;
minHours=1;
hours=24;
demand= [25 28 43 41 28 43 41 28 31 18 2 3 6 5 6 5 6 3 4 2 29 64 35 41  ];
